牛客/2019暑期多校训练营/数据/9_D_Knapsack Cryptosystem/13.in
36 732293443018870
49597414911380 26642460832151 30329967585073 60659935170146 48767501349683 59000108046752 22492893023666 47013465676860 46457196071868 24417382412183 48184286669945 67227390131066 45842446259411 10281509939860 5722977527848 58359828427698 37368332078 25455765889946 35872555837870 1923334711665 41660210169530 53801697699598 26011234774859 20509651340249 31481975053522 57151466728194 6053656867305 32006686477302 56019166387949 49290170104555 5773593531922 17289191129828 12018462053540 15860458566552 67205717870977 44066154781997
